Route #1: 34 64 96 48 26 47 38
Route #2: 68 90 84 66
Route #3: 31 46 35
Route #4: 75 93
Route #5: 92 9 86
Route #6: 1 70 54
Route #7: 19 97 27
Route #8: 14 49 6 37 87
Route #9: 69 16 55 76
Route #10: 18 10 39
Route #11: 30 85 11 79
Route #12: 32 33 53 73 95 24
Route #13: 3 77 63
Route #14: 44 67 88 40
Route #15: 83 51 81
Route #16: 58 12 5
Route #17: 23 61 100
Route #18: 80 94 56 21
Route #19: 57 72 36 29 43 45 2 7
Route #20: 52 91 50
Route #21: 25 65 78 42 28
Route #22: 15 22 41 20
Route #23: 74 13 4
Route #24: 71 62 99 98 89
Route #25: 59 60 82
Route #26: 8 17
Cost 27591.0000
Time 16.0003